(declare-fun var0 () String)
(declare-fun var1 () String)
(declare-fun var2 () String)
(declare-fun var3 () String)
(declare-fun var4 () String)
(declare-fun var5 () String)
(declare-fun var6 () String)
(declare-fun var7 () String)
(declare-fun var8 () String)
(declare-fun var9 () String)
(declare-fun var10 () String)
(declare-fun var11 () String)
(declare-fun var12 () String)
(declare-fun var13 () String)
(declare-fun var14 () String)
(declare-fun var15 () String)
(declare-fun var16 () String)
(declare-fun var17 () String)
(declare-fun var18 () String)
(declare-fun var19 () String)
(declare-fun var20 () String)
(declare-fun var21 () String)
(declare-fun var22 () String)
(declare-fun var23 () String)
(declare-fun var24 () String)
(declare-fun var25 () String)
(declare-fun var26 () String)
(declare-fun var27 () String)
(declare-fun var28 () String)
(declare-fun var29 () String)
(declare-fun var30 () String)
(declare-fun var31 () String)
(declare-fun var32 () String)
(declare-fun var33 () String)
(declare-fun var34 () String)
(declare-fun var35 () String)
(declare-fun var36 () String)
(declare-fun var37 () String)
(declare-fun var38 () String)
(declare-fun var39 () String)
(declare-fun var40 () String)
(declare-fun var41 () String)
(declare-fun var42 () String)
(declare-fun var43 () String)
(declare-fun var44 () String)
(declare-fun var45 () String)
(declare-fun var46 () String)
(declare-fun var47 () String)
(declare-fun var48 () String)
(declare-fun var49 () String)
(declare-fun var50 () String)
(declare-fun var51 () String)
(declare-fun var52 () String)
(declare-fun var53 () String)
(declare-fun var54 () String)
(declare-fun var55 () String)
(declare-fun var56 () String)
(declare-fun var57 () String)
(declare-fun var58 () String)
(declare-fun var59 () String)
(declare-fun var60 () String)
(assert (= var0 (Concat var1 var2)))
(assert (= var2 (Concat var3 var4)))
(assert (= var4 (Concat var5 var6)))
(assert (= var6 (Concat var7 var8)))
(assert (= var8 (Concat var9 var10)))
(assert (= var10 (Concat var11 var12)))
(assert (= var12 (Concat var13 var14)))
(assert (= var14 (Concat var15 var16)))
(assert (= var16 (Concat var17 var18)))
(assert (= var18 (Concat var19 var20)))
(assert (= var20 (Concat var21 var22)))
(assert (= var22 (Concat var23 var24)))
(assert (= var24 (Concat var25 var26)))
(assert (= var26 (Concat var27 var28)))
(assert (= var28 (Concat var29 var30)))
(assert (= var30 (Concat var31 var32)))
(assert (= var32 (Concat var33 var34)))
(assert (= var34 (Concat var35 var36)))
(assert (= var36 (Concat var37 var38)))
(assert (= var38 (Concat var39 var40)))
(assert (= var40 (Concat var41 var42)))
(assert (= var42 (Concat var43 var44)))
(assert (= var44 (Concat var45 var46)))
(assert (= var46 (Concat var47 var48)))
(assert (= var48 (Concat var49 var50)))
(assert (= var50 (Concat var51 var52)))
(assert (= var52 (Concat var53 var54)))
(assert (= var54 (Concat var55 var56)))
(assert (= var56 (Concat var57 var58)))
(assert (= var58 (Concat var59 var60)))
(assert (= var0 "solution"))
(assert (= "i" (CharAt var15 431)))
(assert (= ";" (CharAt var20 290)))
(assert (= "B" (CharAt var57 710)))
(assert (= "Y" (CharAt var42 858)))
(assert (= "0" (CharAt var32 722)))
(assert (= "D" (CharAt var16 867)))
(assert (= "@" (CharAt var9 158)))
(assert (= "g" (CharAt var6 691)))
(assert (= "1" (CharAt var10 784)))
(assert (= "&" (CharAt var38 103)))
(assert (= "9" (CharAt var5 172)))
(assert (= "~" (CharAt var24 79)))
(assert (= ":" (CharAt var32 950)))
(assert (= "_" (CharAt var0 596)))
(assert (= "f" (CharAt var28 924)))
(assert (= "y" (CharAt var46 954)))
(assert (= "!" (CharAt var47 838)))
(assert (= "P" (CharAt var24 100)))
(assert (= "3" (CharAt var48 320)))
(assert (= "J" (CharAt var17 615)))
(assert (= ";" (CharAt var28 671)))
(assert (= "w" (CharAt var7 362)))
(assert (= "Y" (CharAt var27 452)))
(assert (= "s" (CharAt var29 163)))
(assert (= "f" (CharAt var28 374)))
(assert (= "O" (CharAt var46 611)))
(assert (= "P" (CharAt var55 344)))
(assert (= "9" (CharAt var50 398)))
(assert (= "?" (CharAt var36 776)))
(assert (= "f" (CharAt var22 978)))
(assert (= "+" (CharAt var34 200)))
(assert (= "7" (CharAt var7 386)))
(assert (= "=" (CharAt var50 178)))
(assert (= "S" (CharAt var7 109)))
(assert (= "!" (CharAt var32 492)))
(assert (= "X" (CharAt var46 14)))
(assert (= "-" (CharAt var6 821)))
(assert (= "5" (CharAt var8 333)))
(assert (= "o" (CharAt var30 173)))
(assert (= "<" (CharAt var13 888)))
(assert (= "6" (CharAt var2 549)))
(assert (= "2" (CharAt var29 792)))
(assert (= "q" (CharAt var50 749)))
(assert (= "h" (CharAt var34 137)))
(assert (= "V" (CharAt var49 209)))
(assert (= "9" (CharAt var22 546)))
(assert (= "L" (CharAt var56 375)))
(assert (= "2" (CharAt var26 276)))
(assert (= "G" (CharAt var9 876)))
(assert (= "Z" (CharAt var12 33)))
(assert (= "A" (CharAt var21 393)))
(assert (= "j" (CharAt var3 389)))
(assert (= "+" (CharAt var50 236)))
(assert (= "<" (CharAt var42 570)))
(assert (= "?" (CharAt var50 566)))
(assert (= "@" (CharAt var12 603)))
(assert (= "n" (CharAt var12 905)))
(assert (= "y" (CharAt var4 967)))
(assert (= "i" (CharAt var9 163)))
(assert (= "g" (CharAt var49 652)))
(assert (= "l" (CharAt var27 530)))
(assert (= "5" (CharAt var3 209)))
(assert (= "\\" (CharAt var27 474)))
(assert (= "E" (CharAt var38 363)))
(assert (= "Z" (CharAt var39 67)))
(assert (= "z" (CharAt var19 841)))
(assert (= "S" (CharAt var2 114)))
(assert (= "(" (CharAt var19 847)))
(assert (= "C" (CharAt var52 799)))
(assert (= "5" (CharAt var13 764)))
(assert (= "N" (CharAt var50 689)))
(assert (= "#" (CharAt var3 925)))
(assert (= "3" (CharAt var43 824)))
(assert (= "\"" (CharAt var12 374)))
(assert (= "X" (CharAt var48 18)))
(assert (= "3" (CharAt var16 162)))
(assert (= "0" (CharAt var23 703)))
(assert (= "@" (CharAt var26 594)))
(assert (= "M" (CharAt var48 785)))
(assert (= "\"" (CharAt var8 562)))
(assert (= "L" (CharAt var52 487)))
(check-sat)